NAME          ../SMPS/sslp_5_25_100
ROWS
 N  obj
 L  c1
 L  c2
 L  c3
 L  c4
 L  c5
 L  c6
 E  c7
 E  c8
 E  c9
 E  c10
 E  c11
 E  c12
 E  c13
 E  c14
 E  c15
 E  c16
 E  c17
 E  c18
 E  c19
 E  c20
 E  c21
 E  c22
 E  c23
 E  c24
 E  c25
 E  c26
 E  c27
 E  c28
 E  c29
 E  c30
 E  c31
COLUMNS
    MARKER    'MARKER'  'INTORG'    
    x1        obj       69.000000     c1        1.000000    
    x1        c2        -425.100000 
    x2        obj       42.000000     c1        1.000000    
    x2        c3        -425.100000 
    x3        obj       44.000000     c1        1.000000    
    x3        c4        -425.100000 
    x4        obj       69.000000     c1        1.000000    
    x4        c5        -425.100000 
    x5        obj       70.000000     c1        1.000000    
    x5        c6        -425.100000 
    x6        obj       -6.000000     c2        6.000000    
    x6        c7        1.000000    
    x7        obj       -5.000000     c3        5.000000    
    x7        c7        1.000000    
    x8        obj       -8.000000     c4        8.000000    
    x8        c7        1.000000    
    x9        obj       -10.000000    c5        10.000000   
    x9        c7        1.000000    
    x10       obj       -11.000000    c6        11.000000   
    x10       c7        1.000000    
    x11       obj       -18.000000    c2        18.000000   
    x11       c8        1.000000    
    x12       obj       -3.000000     c3        3.000000    
    x12       c8        1.000000    
    x13       obj       -19.000000    c4        19.000000   
    x13       c8        1.000000    
    x14       c8        1.000000    
    x15       obj       -3.000000     c6        3.000000    
    x15       c8        1.000000    
    x16       obj       -19.000000    c2        19.000000   
    x16       c9        1.000000    
    x17       obj       -11.000000    c3        11.000000   
    x17       c9        1.000000    
    x18       obj       -17.000000    c4        17.000000   
    x18       c9        1.000000    
    x19       obj       -6.000000     c5        6.000000    
    x19       c9        1.000000    
    x20       obj       -23.000000    c6        23.000000   
    x20       c9        1.000000    
    x21       obj       -24.000000    c2        24.000000   
    x21       c10       1.000000    
    x22       obj       -25.000000    c3        25.000000   
    x22       c10       1.000000    
    x23       obj       -13.000000    c4        13.000000   
    x23       c10       1.000000    
    x24       obj       -7.000000     c5        7.000000    
    x24       c10       1.000000    
    x25       obj       -4.000000     c6        4.000000    
    x25       c10       1.000000    
    x26       obj       -11.000000    c2        11.000000   
    x26       c11       1.000000    
    x27       obj       -7.000000     c3        7.000000    
    x27       c11       1.000000    
    x28       obj       -7.000000     c4        7.000000    
    x28       c11       1.000000    
    x29       obj       -16.000000    c5        16.000000   
    x29       c11       1.000000    
    x30       obj       -21.000000    c6        21.000000   
    x30       c11       1.000000    
    x31       obj       -4.000000     c2        4.000000    
    x31       c12       1.000000    
    x32       obj       -12.000000    c3        12.000000   
    x32       c12       1.000000    
    x33       obj       -9.000000     c4        9.000000    
    x33       c12       1.000000    
    x34       obj       -3.000000     c5        3.000000    
    x34       c12       1.000000    
    x35       obj       -8.000000     c6        8.000000    
    x35       c12       1.000000    
    x36       obj       -8.000000     c2        8.000000    
    x36       c13       1.000000    
    x37       obj       -22.000000    c3        22.000000   
    x37       c13       1.000000    
    x38       obj       -18.000000    c4        18.000000   
    x38       c13       1.000000    
    x39       obj       -7.000000     c5        7.000000    
    x39       c13       1.000000    
    x40       obj       -15.000000    c6        15.000000   
    x40       c13       1.000000    
    x41       obj       -6.000000     c2        6.000000    
    x41       c14       1.000000    
    x42       obj       -12.000000    c3        12.000000   
    x42       c14       1.000000    
    x43       obj       -13.000000    c4        13.000000   
    x43       c14       1.000000    
    x44       obj       -4.000000     c5        4.000000    
    x44       c14       1.000000    
    x45       obj       -7.000000     c6        7.000000    
    x45       c14       1.000000    
    x46       obj       -2.000000     c2        2.000000    
    x46       c15       1.000000    
    x47       obj       -6.000000     c3        6.000000    
    x47       c15       1.000000    
    x48       obj       -3.000000     c4        3.000000    
    x48       c15       1.000000    
    x49       obj       -10.000000    c5        10.000000   
    x49       c15       1.000000    
    x50       obj       -19.000000    c6        19.000000   
    x50       c15       1.000000    
    x51       c16       1.000000    
    x52       obj       -9.000000     c3        9.000000    
    x52       c16       1.000000    
    x53       obj       -11.000000    c4        11.000000   
    x53       c16       1.000000    
    x54       obj       -5.000000     c5        5.000000    
    x54       c16       1.000000    
    x55       obj       -6.000000     c6        6.000000    
    x55       c16       1.000000    
    x56       obj       -3.000000     c2        3.000000    
    x56       c17       1.000000    
    x57       obj       -5.000000     c3        5.000000    
    x57       c17       1.000000    
    x58       obj       -15.000000    c4        15.000000   
    x58       c17       1.000000    
    x59       obj       -23.000000    c5        23.000000   
    x59       c17       1.000000    
    x60       obj       -21.000000    c6        21.000000   
    x60       c17       1.000000    
    x61       obj       -8.000000     c2        8.000000    
    x61       c18       1.000000    
    x62       obj       -13.000000    c3        13.000000   
    x62       c18       1.000000    
    x63       obj       -18.000000    c4        18.000000   
    x63       c18       1.000000    
    x64       obj       -14.000000    c5        14.000000   
    x64       c18       1.000000    
    x65       c18       1.000000    
    x66       obj       -19.000000    c2        19.000000   
    x66       c19       1.000000    
    x67       obj       -21.000000    c3        21.000000   
    x67       c19       1.000000    
    x68       obj       -7.000000     c4        7.000000    
    x68       c19       1.000000    
    x69       obj       -16.000000    c5        16.000000   
    x69       c19       1.000000    
    x70       obj       -6.000000     c6        6.000000    
    x70       c19       1.000000    
    x71       obj       -15.000000    c2        15.000000   
    x71       c20       1.000000    
    x72       obj       -11.000000    c3        11.000000   
    x72       c20       1.000000    
    x73       obj       -13.000000    c4        13.000000   
    x73       c20       1.000000    
    x74       obj       -20.000000    c5        20.000000   
    x74       c20       1.000000    
    x75       c20       1.000000    
    x76       obj       -11.000000    c2        11.000000   
    x76       c21       1.000000    
    x77       c21       1.000000    
    x78       obj       -16.000000    c4        16.000000   
    x78       c21       1.000000    
    x79       obj       -4.000000     c5        4.000000    
    x79       c21       1.000000    
    x80       obj       -1.000000     c6        1.000000    
    x80       c21       1.000000    
    x81       obj       -10.000000    c2        10.000000   
    x81       c22       1.000000    
    x82       obj       -22.000000    c3        22.000000   
    x82       c22       1.000000    
    x83       obj       -17.000000    c4        17.000000   
    x83       c22       1.000000    
    x84       obj       -14.000000    c5        14.000000   
    x84       c22       1.000000    
    x85       obj       -1.000000     c6        1.000000    
    x85       c22       1.000000    
    x86       obj       -13.000000    c2        13.000000   
    x86       c23       1.000000    
    x87       obj       -24.000000    c3        24.000000   
    x87       c23       1.000000    
    x88       obj       -11.000000    c4        11.000000   
    x88       c23       1.000000    
    x89       obj       -2.000000     c5        2.000000    
    x89       c23       1.000000    
    x90       obj       -14.000000    c6        14.000000   
    x90       c23       1.000000    
    x91       obj       -9.000000     c2        9.000000    
    x91       c24       1.000000    
    x92       c24       1.000000    
    x93       obj       -1.000000     c4        1.000000    
    x93       c24       1.000000    
    x94       obj       -10.000000    c5        10.000000   
    x94       c24       1.000000    
    x95       obj       -7.000000     c6        7.000000    
    x95       c24       1.000000    
    x96       obj       -16.000000    c2        16.000000   
    x96       c25       1.000000    
    x97       obj       -4.000000     c3        4.000000    
    x97       c25       1.000000    
    x98       obj       -12.000000    c4        12.000000   
    x98       c25       1.000000    
    x99       obj       -2.000000     c5        2.000000    
    x99       c25       1.000000    
    x100      obj       -12.000000    c6        12.000000   
    x100      c25       1.000000    
    x101      obj       -10.000000    c2        10.000000   
    x101      c26       1.000000    
    x102      obj       -13.000000    c3        13.000000   
    x102      c26       1.000000    
    x103      obj       -18.000000    c4        18.000000   
    x103      c26       1.000000    
    x104      obj       -25.000000    c5        25.000000   
    x104      c26       1.000000    
    x105      obj       -23.000000    c6        23.000000   
    x105      c26       1.000000    
    x106      obj       -18.000000    c2        18.000000   
    x106      c27       1.000000    
    x107      obj       -5.000000     c3        5.000000    
    x107      c27       1.000000    
    x108      obj       -11.000000    c4        11.000000   
    x108      c27       1.000000    
    x109      obj       -4.000000     c5        4.000000    
    x109      c27       1.000000    
    x110      obj       -13.000000    c6        13.000000   
    x110      c27       1.000000    
    x111      obj       -19.000000    c2        19.000000   
    x111      c28       1.000000    
    x112      obj       -12.000000    c3        12.000000   
    x112      c28       1.000000    
    x113      obj       -21.000000    c4        21.000000   
    x113      c28       1.000000    
    x114      obj       -23.000000    c5        23.000000   
    x114      c28       1.000000    
    x115      obj       -15.000000    c6        15.000000   
    x115      c28       1.000000    
    x116      obj       -10.000000    c2        10.000000   
    x116      c29       1.000000    
    x117      obj       -7.000000     c3        7.000000    
    x117      c29       1.000000    
    x118      obj       -17.000000    c4        17.000000   
    x118      c29       1.000000    
    x119      obj       -21.000000    c5        21.000000   
    x119      c29       1.000000    
    x120      obj       -20.000000    c6        20.000000   
    x120      c29       1.000000    
    x121      obj       -17.000000    c2        17.000000   
    x121      c30       1.000000    
    x122      obj       -2.000000     c3        2.000000    
    x122      c30       1.000000    
    x123      obj       -16.000000    c4        16.000000   
    x123      c30       1.000000    
    x124      obj       -24.000000    c5        24.000000   
    x124      c30       1.000000    
    x125      obj       -23.000000    c6        23.000000   
    x125      c30       1.000000    
    x126      obj       -3.000000     c2        3.000000    
    x126      c31       1.000000    
    x127      obj       -3.000000     c3        3.000000    
    x127      c31       1.000000    
    x128      obj       -23.000000    c4        23.000000   
    x128      c31       1.000000    
    x129      obj       -7.000000     c5        7.000000    
    x129      c31       1.000000    
    x130      c31       1.000000    
    MARKER    'MARKER'  'INTEND'    
    x131      obj       1000.000000   c2        -1.000000   
    x132      obj       1000.000000   c3        -1.000000   
    x133      obj       1000.000000   c4        -1.000000   
    x134      obj       1000.000000   c5        -1.000000   
    x135      obj       1000.000000   c6        -1.000000   
RHS
    rhs       c1        5.000000      c2        -0.000000   
    rhs       c3        -0.000000     c4        -0.000000   
    rhs       c5        -0.000000     c6        -0.000000   
    rhs       c7        1.000000      c8        1.000000    
    rhs       c9        1.000000      c10       1.000000    
    rhs       c11       1.000000      c12       1.000000    
    rhs       c13       1.000000      c14       1.000000    
    rhs       c15       1.000000      c16       1.000000    
    rhs       c17       1.000000      c18       1.000000    
    rhs       c19       1.000000      c20       1.000000    
    rhs       c21       1.000000      c22       1.000000    
    rhs       c23       1.000000      c24       1.000000    
    rhs       c25       1.000000      c26       1.000000    
    rhs       c27       1.000000      c28       1.000000    
    rhs       c29       1.000000      c30       1.000000    
    rhs       c31       1.000000    
BOUNDS
 BV BOUND  x1      
 BV BOUND  x2      
 BV BOUND  x3      
 BV BOUND  x4      
 BV BOUND  x5      
 BV BOUND  x6      
 BV BOUND  x7      
 BV BOUND  x8      
 BV BOUND  x9      
 BV BOUND  x10     
 BV BOUND  x11     
 BV BOUND  x12     
 BV BOUND  x13     
 BV BOUND  x14     
 BV BOUND  x15     
 BV BOUND  x16     
 BV BOUND  x17     
 BV BOUND  x18     
 BV BOUND  x19     
 BV BOUND  x20     
 BV BOUND  x21     
 BV BOUND  x22     
 BV BOUND  x23     
 BV BOUND  x24     
 BV BOUND  x25     
 BV BOUND  x26     
 BV BOUND  x27     
 BV BOUND  x28     
 BV BOUND  x29     
 BV BOUND  x30     
 BV BOUND  x31     
 BV BOUND  x32     
 BV BOUND  x33     
 BV BOUND  x34     
 BV BOUND  x35     
 BV BOUND  x36     
 BV BOUND  x37     
 BV BOUND  x38     
 BV BOUND  x39     
 BV BOUND  x40     
 BV BOUND  x41     
 BV BOUND  x42     
 BV BOUND  x43     
 BV BOUND  x44     
 BV BOUND  x45     
 BV BOUND  x46     
 BV BOUND  x47     
 BV BOUND  x48     
 BV BOUND  x49     
 BV BOUND  x50     
 BV BOUND  x51     
 BV BOUND  x52     
 BV BOUND  x53     
 BV BOUND  x54     
 BV BOUND  x55     
 BV BOUND  x56     
 BV BOUND  x57     
 BV BOUND  x58     
 BV BOUND  x59     
 BV BOUND  x60     
 BV BOUND  x61     
 BV BOUND  x62     
 BV BOUND  x63     
 BV BOUND  x64     
 BV BOUND  x65     
 BV BOUND  x66     
 BV BOUND  x67     
 BV BOUND  x68     
 BV BOUND  x69     
 BV BOUND  x70     
 BV BOUND  x71     
 BV BOUND  x72     
 BV BOUND  x73     
 BV BOUND  x74     
 BV BOUND  x75     
 BV BOUND  x76     
 BV BOUND  x77     
 BV BOUND  x78     
 BV BOUND  x79     
 BV BOUND  x80     
 BV BOUND  x81     
 BV BOUND  x82     
 BV BOUND  x83     
 BV BOUND  x84     
 BV BOUND  x85     
 BV BOUND  x86     
 BV BOUND  x87     
 BV BOUND  x88     
 BV BOUND  x89     
 BV BOUND  x90     
 BV BOUND  x91     
 BV BOUND  x92     
 BV BOUND  x93     
 BV BOUND  x94     
 BV BOUND  x95     
 BV BOUND  x96     
 BV BOUND  x97     
 BV BOUND  x98     
 BV BOUND  x99     
 BV BOUND  x100    
 BV BOUND  x101    
 BV BOUND  x102    
 BV BOUND  x103    
 BV BOUND  x104    
 BV BOUND  x105    
 BV BOUND  x106    
 BV BOUND  x107    
 BV BOUND  x108    
 BV BOUND  x109    
 BV BOUND  x110    
 BV BOUND  x111    
 BV BOUND  x112    
 BV BOUND  x113    
 BV BOUND  x114    
 BV BOUND  x115    
 BV BOUND  x116    
 BV BOUND  x117    
 BV BOUND  x118    
 BV BOUND  x119    
 BV BOUND  x120    
 BV BOUND  x121    
 BV BOUND  x122    
 BV BOUND  x123    
 BV BOUND  x124    
 BV BOUND  x125    
 BV BOUND  x126    
 BV BOUND  x127    
 BV BOUND  x128    
 BV BOUND  x129    
 BV BOUND  x130    
 PL BOUND     x131    
 PL BOUND     x132    
 PL BOUND     x133    
 PL BOUND     x134    
 PL BOUND     x135    
ENDATA
